sample3.mps
NAME         
ROWS
 L  R0001
 L  R0002
 L  R0003
 L  R0004
 L  R0005
 N  R0006
COLUMNS
    INT1      'MARKER'                 'INTORG'
    C0001     R0002     1
    C0001     R0003     54
    C0002     R0001     964
    C0002     R0002     1
    C0002     R0006     184
    C0003     R0003     269
    C0003     R0004     1
    C0004     R0001     246
    C0004     R0004     1
    C0004     R0006     585
    C0005     R0003     93
    C0005     R0005     1
    C0006     R0001     662
    C0006     R0005     1
    C0006     R0006     423
    
    INT1END   'MARKER'                 'INTEND'
RHS
    B         R0001     970
    B         R0002     1
    B         R0003     270
    B         R0004     1
    B         R0005     1
 
BOUNDS
 UP BOUND     C0001     1
 UP BOUND     C0002     1
 UP BOUND     C0003     1
 UP BOUND     C0004     1
 UP BOUND     C0005     1
 UP BOUND     C0006     1

ENDATA
